c Sudoku solution
p cnf 729 0
137 0
211 0
318 0
323 0
336 0
345 0
387 0
394 0
421 0
485 0
497 0
522 0
571 0
593 0
625 0
669 0
715 0
235 0
112 0
756 0
841 0
651 0
361 0
864 0
955 0
565 0
972 0
379 0
352 0
832 0
589 0
986 0
826 0
998 0
883 0
858 0
931 0
728 0
927 0
819 0
877 0
895 0
774 0
781 0
799 0
733 0
914 0
949 0
963 0
439 0
684 0
692 0
638 0
534 0
557 0
516 0
413 0
617 0
454 0
643 0
548 0
478 0
676 0
175 0
273 0
153 0
259 0
129 0
224 0
144 0
188 0
191 0
296 0
282 0
166 0
247 0
268 0
446 0
462 0
742 0
767 0
